50, 12705
683, 681
92, 90
618, 618
842, 840
835, 834
516, 516
632, 630
370, 369
529, 528
108, 108
683, 681
601, 600
282, 282
379, 378
737, 735
444, 444
960, 960
972, 972
839, 837
92, 90
76, 75
289, 288
362, 360
705, 705
827, 825
563, 561
640, 639
574, 573
35, 33
527, 525
214, 213
417, 417
9, 9
656, 654
911, 909
69, 69
581, 579
24, 24
352, 351
160, 159
861, 861
729, 729
897, 897
218, 216
719, 717
700, 699
511, 510
917, 915
625, 624
283, 282
